(declare-fun bvlambda_11_ () (_ BitVec 1))
(declare-fun a196 () (Array (_ BitVec 1) (_ BitVec 12)))
(assert
(let (($e42 (_ bv0    12)))
(let (($e374 (store a196 (not false)        $e42 )))
(let (($e376 (select $e374 (not   bvlambda_11_))))
             (   extract        $e376)
                                                                                                                                                                                                                                                                                                                                                                                                                                                                                                                                                                                                                                                                                                                                                                                                                                                                                                                                                                                                                                                                                                                                                                                                                                                                                                                                                                                                                                                                                                                                                                                                                                                                                                                                                                                                                                                                                                                                                                                                                                                                                                                                                                                                                                                                                                                                                                                                                                                                                                                                                                                                                                                                                                                                                                                                                                                                                                                                                                                                                                                                                                                                                                                                                                                                                                                                                                                                                                                         ) )                                                                                                                                                                                                                                                              )                                         )
